
100
29181

683 783
92 192
618 718
842 942
835 935
516 616
632 732
370 470
529 629
108 208
683 783
601 701
282 382
379 479
737 837
444 544
960 1060
972 1072
839 939
92 192
76 176
289 389
362 462
705 805
827 927
563 663
640 740
574 674
35 135
527 627
214 314
417 517
9 109
656 756
911 1011
69 169
581 681
24 124
352 452
160 260
861 961
729 829
897 997
218 318
719 819
700 800
511 611
917 1017
625 725
283 383
718 818
482 582
214 314
618 718
49 149
450 550
557 657
3 103
649 749
89 189
650 750
342 442
30 130
1000 1100
65 165
157 257
506 606
246 346
531 631
475 575
577 677
544 644
295 395
212 312
695 795
429 529
521 621
916 1016
9 109
278 378
564 664
54 154
754 854
402 502
317 417
195 295
967 1067
47 147
822 922
705 805
898 998
702 802
347 447
550 650
922 1022
41 141
850 950
674 774
197 297
967 1067
